100 100
95 77 1
50 53 1
11 30 1
100 95 1
73 73 1
19 18 1
60 19 1
52 99 1
83 12 1
76 49 1
87 30 1
3 13 1
48 84 1
77 68 1
79 19 1
76 26 1
24 11 1
11 31 1
60 73 1
26 60 1
99 48 1
99 26 1
84 15 1
42 72 1
95 85 1
98 76 1
41 1 1
46 49 1
68 42 1
96 36 1
53 20 1
94 15 1
7 77 1
16 96 1
75 93 1
74 24 1
34 78 1
12 77 1
96 77 1
9 66 1
5 67 1
75 35 1
39 60 1
54 63 1
9 100 1
25 60 1
59 64 1
99 70 1
67 65 1
20 72 1
45 46 1
65 76 1
36 85 1
47 28 1
19 93 1
8 4 1
4 15 1
28 16 1
37 29 1
18 9 1
94 45 1
20 60 1
87 8 1
15 80 1
60 96 1
12 14 1
92 20 1
56 39 1
93 25 1
25 67 1
7 87 1
29 41 1
13 19 1
15 41 1
22 64 1
58 77 1
78 1 1
70 93 1
58 41 1
97 67 1
75 27 1
14 10 1
71 38 1
35 67 1
26 86 1
2 16 1
51 13 1
94 67 1
88 99 1
22 65 1
18 54 1
31 88 1
50 23 1
97 47 1
29 83 1
33 86 1
33 46 1
83 84 1
72 56 1
24 50 1
100 100 
100 100 
100 100 
100 100 
100 100 
100 100 
100 100 
100 100 
100 100 
100 100 
100 100 
100 100 
100 100 
100 100 
100 100 
100 100 
100 100 
100 100 
100 100 
100 100 
100 100 
100 100 
100 100 
100 100 
100 100 
100 100 
100 100 
100 100 
100 100 
100 100 
100 100 
100 100 
100 100 
100 100 
100 100 
100 100 
100 100 
100 100 
100 100 
100 100 
100 100 
100 100 
100 100 
100 100 
100 100 
100 100 
100 100 
100 100 
100 100 
100 100 
100 100 
100 100 
100 100 
100 100 
100 100 
100 100 
100 100 
100 100 
100 100 
100 100 
100 100 
100 100 
100 100 
100 100 
100 100 
100 100 
100 100 
100 100 
100 100 
100 100 
100 100 
100 100 
100 100 
100 100 
100 100 
100 100 
100 100 
100 100 
100 100 
100 100 
100 100 
100 100 
100 100 
100 100 
100 100 
100 100 
100 100 
100 100 
100 100 
100 100 
100 100 
100 100 
100 100 
100 100 
100 100 
100 100 
100 100 
100 100 
100 100 
100 100 
